sifdecoder -A pc64.lnx.gfo -st   READING2

 Problem name: READING2

 Double precision version will be formed

 The objective function uses 1 linear group
 
 There are 4000 linear equality constraints
 
 There are 2000 free variables
 There are 4001 variables bounded from below and above 
 There are 2 fixed variables
 
 
 File successfully decoded
 CUTEST: tools (double precision version) compiled successfully
 CUTEst: ipopt (double precision version) compiled successfully

******************************************************************************
This program contains Ipopt, a library for large-scale nonlinear optimization.
 Ipopt is released as open source code under the Eclipse Public License (EPL).
         For more information visit http://projects.coin-or.org/Ipopt
******************************************************************************

This is Ipopt version trunk, running with linear solver ma57.

Number of nonzeros in equality constraint Jacobian...:    15997
Number of nonzeros in inequality constraint Jacobian.:        0
Number of nonzeros in Lagrangian Hessian.............:        0

Total number of variables............................:     6001
                     variables with only lower bounds:        0
                variables with lower and upper bounds:     4001
                     variables with only upper bounds:        0
Total number of equality constraints.................:     4000
Total number of inequality constraints...............:        0
        inequality constraints with only lower bounds:        0
   inequality constraints with lower and upper bounds:        0
        inequality constraints with only upper bounds:        0

iter    objective    inf_pr   inf_du lg(mu)  ||d||  lg(rg) alpha_du alpha_pr  ls
   0  0.0000000e+00 0.00e+00 1.27e-05  -1.0 0.00e+00    -  0.00e+00 0.00e+00   0
Reallocating memory for MA57: lfact (124374)
   1 -6.8251976e-08 1.41e-15 4.19e-16  -1.7 6.33e-06    -  1.00e+00 1.00e+00f  1
   2 -1.9792439e-06 2.02e-14 7.59e-14  -3.8 3.15e-04    -  1.00e+00 1.00e+00f  1
   3 -2.5610169e-04 2.22e-15 1.85e-11  -5.7 4.19e-02    -  9.72e-01 1.00e+00f  1
   4 -6.4175193e-03 6.51e-14 4.99e-07  -8.6 9.58e-01    -  5.31e-01 1.00e+00f  1
   5 -1.1077081e-02 8.23e-14 3.33e-06  -8.6 5.36e-01    -  7.22e-01 8.55e-01f  1
   6 -1.1897902e-02 5.89e-14 4.68e-06  -8.6 3.72e-01    -  6.89e-01 5.54e-01f  1
   7 -1.2300190e-02 6.03e-14 1.86e-06  -8.6 5.71e-01    -  5.55e-01 5.91e-01f  1
   8 -1.2439199e-02 7.09e-14 9.34e-07  -8.6 6.84e-01    -  4.98e-01 5.03e-01f  1
   9 -1.2503220e-02 5.62e-14 6.27e-07  -8.6 8.17e-01    -  4.52e-01 4.60e-01f  1
iter    objective    inf_pr   inf_du lg(mu)  ||d||  lg(rg) alpha_du alpha_pr  ls
  10 -1.2535380e-02 6.46e-14 4.92e-07  -8.6 9.22e-01    -  4.22e-01 4.28e-01f  1
  11 -1.2552945e-02 6.53e-14 2.89e-07  -8.6 1.00e+00    -  4.07e-01 4.08e-01f  1
  12 -1.2563179e-02 6.22e-14 4.20e-07  -8.6 1.08e+00    -  3.96e-01 4.01e-01f  1
  13 -1.2569421e-02 6.20e-14 1.15e-06  -8.6 1.10e+00    -  3.93e-01 4.10e-01f  1
  14 -1.2573499e-02 6.26e-14 9.74e-07  -8.6 1.09e+00    -  4.46e-01 4.55e-01f  1
  15 -1.2576573e-02 6.04e-14 1.24e-05  -8.6 7.77e-01    -  4.80e-01 6.30e-01f  1
  16 -1.2578359e-02 6.48e-14 2.56e-05  -8.6 7.02e-01    -  7.00e-01 1.00e+00f  1
  17 -1.2578386e-02 6.54e-14 2.18e-11  -8.6 4.31e-01    -  1.00e+00 1.00e+00h  1

Number of Iterations....: 17

                                   (scaled)                 (unscaled)
Objective...............:  -1.2578386006971412e-02   -1.2578386006971412e-02
Dual infeasibility......:   2.1812295947307853e-11    2.1812295947307853e-11
Constraint violation....:   3.2696068075210863e-15    6.5392136150421720e-14
Complementarity.........:   3.5776662498120643e-09    3.5776662498120643e-09
Overall NLP error.......:   3.5776662498120643e-09    3.5776662498120643e-09


Number of objective function evaluations             = 18
Number of objective gradient evaluations             = 18
Number of equality constraint evaluations            = 18
Number of inequality constraint evaluations          = 0
Number of equality constraint Jacobian evaluations   = 18
Number of inequality constraint Jacobian evaluations = 0
Number of Lagrangian Hessian evaluations             = 17
Total CPU secs in IPOPT (w/o function evaluations)   =      0.261
Total CPU secs in NLP function evaluations           =      0.030

EXIT: Optimal Solution Found.

************************ CUTEst statistics ************************


 Package used            :  IPOPT
 Problem                 :  READING2  
 # variables             =            6003
 # constraints           =            4000
 # objective functions   =        0.3700000E+02
 # objective gradients   =        0.1900000E+02
 # objective Hessians    =        0.1800000E+02
 # Hessian-vector prdct  =        0.0000000E+00
 # constraints functions =        0.3800000E+02
 # constraints gradients =        0.2000000E+02
 # constraints Hessians  =        0.1800000E+02
 Exit code               =               0
 Final f                 =       -1.2578386006971412D-02
 Bounds feasibility      =        0.0000000000000000D+00
 Set up time             =            0.39 seconds
 Solve time              =            0.61 seconds


******************************************************************

